language Essence 1.3

letting mms be
        [[{1, 2, 3, 4}, {1, 2, 3, 4}, {1, 2, 3, 4}; int(4..6)],
         [{1, 2, 3, 4}, {1, 2, 3, 4}, {1, 2, 3, 4}; int(4..6)],
         [{1, 2, 3, 4}, {1, 2, 3, 4}, {1, 2, 3, 4}; int(4..6)]; int(1..3)]
